* ENCODING=ISO-8859-1
NAME          CPLEX
ROWS
 N  obj1    
 G  c1      
 G  c2      
 G  c3      
 G  c4      
 G  c5      
 G  c6      
 G  c7      
 G  c8      
 G  c9      
 G  c10     
 G  c11     
 G  c12     
 G  c13     
 G  c14     
 G  c15     
 G  c16     
 G  c17     
 G  c18     
 G  c19     
 G  c20     
 G  c21     
 G  c22     
 G  c23     
 G  c24     
 G  c25     
 G  c26     
 G  c27     
 G  c28     
 G  c29     
 G  c30     
 G  c31     
 G  c32     
 G  c33     
 G  c34     
 G  c35     
COLUMNS
    MARK0000  'MARKER'                 'INTORG'
    x1        obj1                            1
    x1        c10                           269
    x1        c17                           998
    x2        obj1                            1
    x2        c2                            540
    x3        obj1                            1
    x3        c32                           517
    x4        obj1                            1
    x4        c18                           232
    x4        c19                           133
    x4        c25                           765
    x4        c33                           571
    x5        obj1                            1
    x5        c2                            922
    x5        c14                           948
    x5        c26                           182
    x5        c28                           287
    x6        obj1                            1
    x6        c10                           186
    x6        c35                           758
    x7        obj1                            1
    x7        c18                           344
    x7        c19                           729
    x7        c21                           363
    x7        c22                           350
    x8        obj1                            1
    x8        c8                            307
    x8        c30                           102
    x9        obj1                            1
    x9        c6                            721
    x9        c12                           362
    x9        c18                           206
    x10       obj1                            1
    x10       c4                            786
    x10       c6                            252
    x10       c20                           397
    x11       obj1                            1
    x11       c5                            338
    x11       c7                            900
    x11       c15                           683
    x11       c25                           224
    x11       c32                           530
    x12       obj1                            1
    x12       c1                            936
    x12       c12                           144
    x12       c30                           631
    x12       c32                           942
    x13       obj1                            1
    x13       c14                           861
    x13       c23                           793
    x14       obj1                            1
    x14       c23                           753
    x14       c34                           189
    x15       obj1                            1
    x15       c1                            269
    x15       c8                            855
    x15       c10                           866
    x15       c16                           972
    x15       c22                           474
    x15       c25                           747
    x15       c26                           131
    x16       obj1                            1
    x16       c14                           110
    x16       c16                           215
    x17       obj1                            1
    x17       c21                           679
    x17       c22                           824
    x17       c34                           594
    x18       obj1                            1
    x18       c21                           257
    x19       obj1                            1
    x19       c8                            400
    x19       c27                           431
    x20       obj1                            1
    x20       c7                            548
    x20       c15                           406
    x20       c18                           942
    x20       c33                           821
    x21       obj1                            1
    x21       c3                            117
    x21       c12                           460
    x21       c28                           711
    x22       obj1                            1
    x22       c1                            475
    x22       c17                           705
    x22       c31                           941
    x23       obj1                            1
    x23       c23                           136
    x24       obj1                            1
    x24       c2                            110
    x24       c15                           218
    x24       c24                           125
    x25       obj1                            1
    x25       c12                           651
    x25       c26                           127
    x25       c27                           174
    x26       obj1                            1
    x26       c9                            893
    x26       c25                           822
    x27       obj1                            1
    x27       c31                           149
    x28       obj1                            1
    x28       c11                           941
    x28       c18                           475
    x29       obj1                            1
    x29       c7                            648
    x29       c12                           458
    x29       c29                           157
    x30       obj1                            1
    x30       c12                           129
    x30       c13                           441
    x30       c15                           713
    x30       c19                           310
    x31       obj1                            1
    x31       c8                            424
    x31       c14                           325
    x31       c20                           928
    x31       c29                           576
    x32       obj1                            1
    x32       c26                           197
    x32       c30                           654
    x32       c31                           220
    x33       obj1                            1
    x33       c7                            892
    x33       c18                           785
    x33       c31                           683
    x33       c33                           117
    x34       obj1                            1
    x34       c8                            824
    x34       c23                           737
    x34       c26                           528
    x34       c33                           415
    x35       obj1                            1
    x35       c17                           769
    x35       c20                           224
    x35       c28                           328
    x36       obj1                            1
    x36       c12                           951
    x36       c13                           226
    x36       c18                           224
    x36       c20                           415
    x36       c23                           838
    x37       obj1                            1
    x37       c9                            147
    x37       c26                           931
    x37       c31                           971
    x38       obj1                            1
    x38       c19                           348
    x38       c22                           623
    x38       c24                           683
    x38       c28                           450
    x38       c31                           431
    x39       obj1                            1
    x39       c1                            852
    x39       c14                           230
    x40       obj1                            1
    x40       c6                            875
    x40       c23                           867
    x40       c27                           954
    x40       c29                           919
    x40       c33                           127
    x40       c35                           553
    x41       obj1                            1
    x41       c5                            283
    x41       c6                            371
    x41       c9                            558
    x41       c14                           513
    x41       c19                           294
    x41       c22                           597
    x42       obj1                            1
    x42       c4                            705
    x42       c11                           367
    x42       c12                           619
    x42       c19                           461
    x42       c25                           781
    x42       c31                           491
    x42       c35                           513
    x43       obj1                            1
    x43       c8                            819
    x43       c11                           209
    x43       c28                           521
    x44       obj1                            1
    x44       c4                            334
    x44       c15                           561
    x44       c33                           882
    x45       obj1                            1
    x45       c1                            181
    x45       c4                            299
    x45       c5                            327
    x45       c18                           843
    x45       c23                           742
    x45       c25                           994
    x46       obj1                            1
    x46       c5                            564
    x46       c13                           198
    x46       c14                           586
    x46       c16                           207
    x47       obj1                            1
    x47       c3                            981
    x47       c5                            574
    x47       c8                            148
    x48       obj1                            1
    x48       c3                            475
    x48       c6                            150
    x48       c27                           406
    x48       c29                           860
    x48       c34                           202
    x49       obj1                            1
    x50       obj1                            1
    x50       c1                            240
    x50       c24                           289
    x50       c26                           399
    x51       obj1                            1
    x51       c25                           100
    x51       c28                           364
    x52       obj1                            1
    x52       c1                            273
    x52       c11                           371
    x52       c26                           971
    x52       c30                           475
    x52       c34                           321
    x53       obj1                            1
    x53       c28                           657
    x54       obj1                            1
    x54       c3                            153
    x54       c16                           214
    x54       c18                           874
    x54       c21                           335
    x54       c23                           323
    x54       c33                           474
    x55       obj1                            1
    x55       c9                            176
    x55       c21                           328
    x55       c22                           389
    x55       c23                           419
    x55       c24                           246
    x55       c33                           874
    x56       obj1                            1
    x56       c15                           292
    x56       c22                           620
    x57       obj1                            1
    x57       c27                           317
    x58       obj1                            1
    x58       c17                           358
    x58       c18                           423
    x58       c19                           646
    x58       c20                           490
    x58       c28                           746
    x58       c34                           845
    x59       obj1                            1
    x59       c3                            781
    x59       c22                           733
    x60       obj1                            1
    x60       c9                            533
    x60       c16                           186
    x60       c19                           231
    x60       c25                           683
    x60       c34                           776
    x61       obj1                            1
    x61       c5                            149
    x61       c7                            724
    x61       c19                           192
    x61       c29                           768
    x62       obj1                            1
    x62       c1                            106
    x62       c10                           961
    x62       c14                           442
    x62       c22                           738
    x62       c28                           109
    x63       obj1                            1
    x63       c7                            987
    x63       c25                           380
    x63       c31                           861
    x64       obj1                            1
    x64       c3                            150
    x64       c33                           125
    x65       obj1                            1
    x65       c7                            939
    x65       c21                           725
    x65       c22                           639
    x65       c34                           989
    x66       obj1                            1
    x66       c16                           887
    x67       obj1                            1
    x67       c27                           136
    x67       c32                           555
    x68       obj1                            1
    x68       c2                            654
    x68       c34                           997
    x69       obj1                            1
    x69       c19                           160
    x69       c29                           535
    x70       obj1                            1
    x70       c13                           223
    x70       c35                           388
    MARK0001  'MARKER'                 'INTEND'
RHS
    rhs       c1                           1666
    rhs       c2                           1113
    rhs       c3                           1329
    rhs       c4                           1062
    rhs       c5                           1118
    rhs       c6                           1185
    rhs       c7                           2819
    rhs       c8                           1889
    rhs       c9                           1154
    rhs       c10                          1141
    rhs       c11                           944
    rhs       c12                          1887
    rhs       c13                           544
    rhs       c14                          2008
    rhs       c15                          1437
    rhs       c16                          1341
    rhs       c17                          1415
    rhs       c18                          2674
    rhs       c19                          1752
    rhs       c20                          1227
    rhs       c21                          1344
    rhs       c22                          2994
    rhs       c23                          2804
    rhs       c24                           672
    rhs       c25                          2748
    rhs       c26                          1733
    rhs       c27                          1209
    rhs       c28                          2087
    rhs       c29                          1908
    rhs       c30                           931
    rhs       c31                          2374
    rhs       c32                          1272
    rhs       c33                          2203
    rhs       c34                          2457
    rhs       c35                          1106
BOUNDS
 LI bnd       x1        0
 LI bnd       x2        0
 LI bnd       x3        0
 LI bnd       x4        0
 LI bnd       x5        0
 LI bnd       x6        0
 LI bnd       x7        0
 LI bnd       x8        0
 LI bnd       x9        0
 LI bnd       x10       0
 LI bnd       x11       0
 LI bnd       x12       0
 LI bnd       x13       0
 LI bnd       x14       0
 LI bnd       x15       0
 LI bnd       x16       0
 LI bnd       x17       0
 LI bnd       x18       0
 LI bnd       x19       0
 LI bnd       x20       0
 LI bnd       x21       0
 LI bnd       x22       0
 LI bnd       x23       0
 LI bnd       x24       0
 LI bnd       x25       0
 LI bnd       x26       0
 LI bnd       x27       0
 LI bnd       x28       0
 LI bnd       x29       0
 LI bnd       x30       0
 LI bnd       x31       0
 LI bnd       x32       0
 LI bnd       x33       0
 LI bnd       x34       0
 LI bnd       x35       0
 LI bnd       x36       0
 LI bnd       x37       0
 LI bnd       x38       0
 LI bnd       x39       0
 LI bnd       x40       0
 LI bnd       x41       0
 LI bnd       x42       0
 LI bnd       x43       0
 LI bnd       x44       0
 LI bnd       x45       0
 LI bnd       x46       0
 LI bnd       x47       0
 LI bnd       x48       0
 LI bnd       x49       0
 LI bnd       x50       0
 LI bnd       x51       0
 LI bnd       x52       0
 LI bnd       x53       0
 LI bnd       x54       0
 LI bnd       x55       0
 LI bnd       x56       0
 LI bnd       x57       0
 LI bnd       x58       0
 LI bnd       x59       0
 LI bnd       x60       0
 LI bnd       x61       0
 LI bnd       x62       0
 LI bnd       x63       0
 LI bnd       x64       0
 LI bnd       x65       0
 LI bnd       x66       0
 LI bnd       x67       0
 LI bnd       x68       0
 LI bnd       x69       0
 LI bnd       x70       0
ENDATA
